
Gurobi 10.0.1 (linux64) logging started Mon Apr  7 10:49:37 2025

Set parameter LogFile to value "Results/OneScenarioExperiments/option2_without_equality_constraints_non_market_storage_forbidden_v2.log"
Set parameter TimeLimit to value 84600
Gurobi Optimizer version 10.0.1 build v10.0.1rc0 (linux64)

CPU model: AMD EPYC 9654 96-Core Processor, instruction set [SSE2|AVX|AVX2|AVX512]
Thread count: 192 physical cores, 192 logical processors, using up to 32 threads

Academic license 656792 - for non-commercial use only - registered to b.___@student.vu.nl
Optimize a model with 1703600 rows, 1948128 columns and 7223504 nonzeros
Model fingerprint: 0xaec2e5a9
Coefficient statistics:
  Matrix range     [2e-01, 1e+00]
  Objective range  [6e-05, 2e+01]
  Bounds range     [0e+00, 0e+00]
  RHS range        [1e-02, 1e+03]
Presolve removed 1462602 rows and 1548265 columns
Presolve time: 4.33s
Presolved: 240998 rows, 399890 columns, 1511400 nonzeros

Concurrent LP optimizer: primal simplex, dual simplex, and barrier
Showing barrier log only...

Ordering time: 1.84s

Barrier statistics:
 AA' NZ     : 1.945e+06
 Factor NZ  : 2.160e+07 (roughly 240 MB of memory)
 Factor Ops : 1.926e+10 (less than 1 second per iteration)
 Threads    : 30

                  Objective                Residual
Iter       Primal          Dual         Primal    Dual     Compl     Time
   0  -7.21356045e+05  1.40688959e+09  7.82e+03 5.01e+02  2.27e+05     7s
   1  -3.42528905e+07  1.08799916e+09  1.98e+03 7.55e+01  5.05e+04     7s
   2  -3.58829527e+07  4.74475725e+08  4.78e+02 4.80e+00  9.27e+03     7s
   3  -2.03598772e+07  1.07403631e+08  7.14e+01 3.30e-01  1.48e+03     7s
   4  -6.02378483e+06  3.98095697e+07  1.35e+01 8.59e-02  3.82e+02     7s
   5  -2.24070262e+06  1.76890719e+07  3.71e+00 3.40e-02  1.41e+02     7s
   6  -7.75705954e+05  4.37279412e+06  1.09e+00 6.90e-03  3.40e+01     8s
   7  -2.79305771e+05  7.31665754e+05  3.31e-01 8.80e-04  6.64e+00     8s
   8  -2.40397159e+04  1.15045911e+05  2.24e-02 8.77e-05  8.09e-01     8s
   9  -1.01054389e+03  5.19320030e+04  9.20e-03 2.89e-05  3.07e-01     8s
  10   1.16383676e+04  3.47852502e+04  3.39e-03 1.32e-05  1.32e-01     8s
  11   1.45957836e+04  2.92454235e+04  2.23e-03 7.92e-06  8.36e-02     8s
  12   1.66884197e+04  2.57761870e+04  1.48e-03 4.50e-06  5.21e-02     8s
  13   1.91703183e+04  2.34484746e+04  6.50e-04 2.13e-06  2.44e-02     8s
  14   2.04467713e+04  2.24016304e+04  2.62e-04 9.78e-07  1.10e-02     8s
  15   2.10139226e+04  2.18403636e+04  1.10e-04 3.66e-07  4.66e-03     8s
  16   2.12251011e+04  2.16630653e+04  5.87e-05 1.79e-07  2.48e-03     8s
  17   2.13533867e+04  2.15505968e+04  2.81e-05 5.94e-08  1.12e-03     8s
  18   2.14283444e+04  2.15079126e+04  1.11e-05 1.81e-08  4.53e-04     9s
  19   2.14594890e+04  2.14974492e+04  4.91e-06 9.26e-09  2.15e-04     9s
  20   2.14782396e+04  2.14888891e+04  1.18e-06 2.14e-09  5.99e-05     9s
  21   2.14838175e+04  2.14862913e+04  2.46e-07 3.76e-10  1.38e-05     9s
  22   2.14848723e+04  2.14858793e+04  9.77e-08 1.34e-10  5.63e-06     9s
  23   2.14852477e+04  2.14857320e+04  4.80e-08 5.27e-11  2.71e-06     9s
  24   2.14855159e+04  2.14856788e+04  1.33e-08 2.43e-11  9.02e-07     9s
  25   2.14855866e+04  2.14856413e+04  4.79e-09 5.69e-12  3.05e-07     9s
  26   2.14856225e+04  2.14856291e+04  2.56e-09 2.21e-12  3.66e-08     9s
  27   2.14856270e+04  2.14856285e+04  3.26e-07 2.23e-12  8.53e-09     9s
  28   2.14856278e+04  2.14856284e+04  1.90e-06 2.28e-12  3.60e-09    10s
  29   2.14856284e+04  2.14856284e+04  1.65e-07 2.48e-12  3.12e-10    10s

Barrier solved model in 29 iterations and 9.60 seconds (9.80 work units)
Optimal objective 2.14856284e+04

Crossover log...

   36878 DPushes remaining with DInf 2.9425702e-03                10s
       0 DPushes remaining with DInf 3.7500000e-04                10s

   16848 PPushes remaining with PInf 3.4333344e-05                10s
    3519 PPushes remaining with PInf 7.3501171e-04                10s
       0 PPushes remaining with PInf 0.0000000e+00                10s

  Push phase complete: Pinf 0.0000000e+00, Dinf 2.6062500e-01     10s

Iteration    Objective       Primal Inf.    Dual Inf.      Time
   47458    2.1485628e+04   0.000000e+00   2.606250e-01     10s

Solved with barrier
Extra simplex iterations after uncrush: 3
   48421    2.1485628e+04   0.000000e+00   0.000000e+00     10s

Use crossover to convert LP symmetric solution to basic solution...
Crossover log...

    2903 DPushes remaining with DInf 0.0000000e+00                11s
       0 DPushes remaining with DInf 0.0000000e+00                11s

    4755 PPushes remaining with PInf 0.0000000e+00                11s
       0 PPushes remaining with PInf 0.0000000e+00                11s

  Push phase complete: Pinf 0.0000000e+00, Dinf 4.6118664e-12     11s

Iteration    Objective       Primal Inf.    Dual Inf.      Time
   67613    2.1485948e+04   0.000000e+00   2.505054e+07     15s
   74552    2.1486146e+04   0.000000e+00   9.123250e+06     20s
   78614    2.1486188e+04   0.000000e+00   6.032931e+05     25s
   82344    2.1486214e+04   0.000000e+00   1.067119e+07     31s
   84255    2.1486252e+04   0.000000e+00   3.708465e+06     37s
   85529    2.1486274e+04   0.000000e+00   7.632111e+06     42s
   86873    2.1486282e+04   0.000000e+00   5.475680e+06     46s
   88147    2.1486303e+04   0.000000e+00   9.636034e+06     51s
   89421    2.1486316e+04   0.000000e+00   1.521278e+07     57s
   90058    2.1486322e+04   0.000000e+00   4.531052e+06     60s
   91332    2.1486331e+04   0.000000e+00   3.569371e+06     66s
   92606    2.1486343e+04   0.000000e+00   6.687418e+06     73s
   93243    2.1486350e+04   0.000000e+00   2.196597e+06     76s
   94517    2.1486364e+04   0.000000e+00   5.263443e+06     83s
   95154    2.1486371e+04   0.000000e+00   4.381954e+06     86s
   96428    2.1486381e+04   0.000000e+00   5.525292e+06     93s
   97065    2.1486386e+04   0.000000e+00   1.898111e+06     96s
   98339    2.1486395e+04   0.000000e+00   8.574930e+06    103s
   98976    2.1486402e+04   0.000000e+00   6.813548e+06    107s
   99613    2.1486411e+04   0.000000e+00   2.699796e+06    110s
  100887    2.1486424e+04   0.000000e+00   3.318944e+06    117s
  101524    2.1486427e+04   0.000000e+00   3.387189e+05    121s
  102161    2.1486432e+04   0.000000e+00   2.717055e+06    126s
  103435    2.1486439e+04   0.000000e+00   3.824413e+05    133s
  104072    2.1486441e+04   0.000000e+00   2.128530e+05    137s
  104709    2.1486441e+04   0.000000e+00   3.327033e+04    141s
  105983    2.1486442e+04   0.000000e+00   8.937496e+04    148s
  106620    2.1486443e+04   0.000000e+00   7.582487e+04    151s
  107894    2.1486444e+04   0.000000e+00   5.169410e+04    158s
  108531    2.1486444e+04   0.000000e+00   2.490151e+04    161s
  109805    2.1486445e+04   0.000000e+00   5.959094e+04    168s
  110442    2.1486445e+04   0.000000e+00   2.853321e+04    172s
  111079    2.1486445e+04   0.000000e+00   8.367736e+04    175s
  112353    2.1486446e+04   0.000000e+00   2.422322e+04    183s
  112990    2.1486447e+04   0.000000e+00   1.271597e+04    187s
  114264    2.1486447e+04   0.000000e+00   5.732891e+04    193s
  114901    2.1486448e+04   0.000000e+00   2.478726e+04    197s
  115538    2.1486448e+04   0.000000e+00   1.370593e+05    201s
  116812    2.1486449e+04   0.000000e+00   1.219972e+04    208s
  117449    2.1486449e+04   0.000000e+00   8.655195e+04    211s
  118086    2.1486449e+04   0.000000e+00   2.191000e+04    216s
  119360    2.1486450e+04   0.000000e+00   1.216378e+05    223s
  119997    2.1486450e+04   0.000000e+00   7.695881e+03    227s
  120634    2.1486450e+04   0.000000e+00   2.273318e+04    231s
  121908    2.1486450e+04   0.000000e+00   1.216691e+04    239s
  122545    2.1486450e+04   0.000000e+00   6.750327e+03    242s
  123182    2.1486450e+04   0.000000e+00   1.028129e+05    245s
  124456    2.1486451e+04   0.000000e+00   5.317083e+04    252s
  125093    2.1486451e+04   0.000000e+00   1.226237e+04    256s
  125730    2.1486451e+04   0.000000e+00   1.192141e+04    261s
  126367    2.1486451e+04   0.000000e+00   1.683919e+04    265s
  127641    2.1486451e+04   0.000000e+00   4.844497e+04    275s
  128278    2.1486451e+04   0.000000e+00   2.727860e+05    280s
  128915    2.1486451e+04   0.000000e+00   5.314068e+03    284s
  129552    2.1486451e+04   0.000000e+00   1.615895e+04    290s
  130189    2.1486452e+04   0.000000e+00   2.157244e+04    294s
  130826    2.1486452e+04   0.000000e+00   7.018330e+03    300s
  131463    2.1486452e+04   0.000000e+00   3.356848e+03    305s
  132100    2.1486452e+04   0.000000e+00   3.668107e+03    310s
  132737    2.1486452e+04   0.000000e+00   5.170230e+03    316s
  133374    2.1486452e+04   0.000000e+00   2.530338e+03    321s
  134648    2.1486452e+04   0.000000e+00   3.636612e+04    329s
  135285    2.1486452e+04   0.000000e+00   1.519837e+03    334s
  135922    2.1486452e+04   0.000000e+00   9.918264e+04    338s
  136559    2.1486452e+04   0.000000e+00   2.250122e+03    342s
  137196    2.1486452e+04   0.000000e+00   1.256996e+03    346s
  138470    2.1486452e+04   0.000000e+00   1.574579e+03    354s
  139107    2.1486452e+04   0.000000e+00   3.732808e+03    359s
  139744    2.1486453e+04   0.000000e+00   8.086866e+03    364s
  140381    2.1486453e+04   0.000000e+00   1.131799e+04    369s
  141018    2.1486453e+04   0.000000e+00   1.391819e+03    374s
  141655    2.1486453e+04   0.000000e+00   2.446081e+03    380s
  142292    2.1486453e+04   0.000000e+00   3.044220e+03    386s
  142929    2.1486453e+04   0.000000e+00   2.872794e+03    391s
  143566    2.1486453e+04   0.000000e+00   2.326320e+03    397s
  144203    2.1486453e+04   0.000000e+00   3.930529e+03    402s
  144840    2.1486453e+04   0.000000e+00   6.678179e+02    405s
  146114    2.1486453e+04   0.000000e+00   7.946538e+02    414s
  146751    2.1486453e+04   0.000000e+00   1.254886e+03    419s
  147388    2.1486453e+04   0.000000e+00   8.339391e+02    423s
  148025    2.1486453e+04   0.000000e+00   2.486617e+03    427s
  148662    2.1486453e+04   0.000000e+00   7.329804e+02    432s
  149299    2.1486453e+04   0.000000e+00   1.757605e+03    436s
  149936    2.1486453e+04   0.000000e+00   9.989892e+02    442s
  150573    2.1486453e+04   0.000000e+00   4.515205e+02    447s
  151210    2.1486453e+04   0.000000e+00   1.033578e+03    451s
  151847    2.1486453e+04   0.000000e+00   1.864793e+02    456s
  153121    2.1486453e+04   0.000000e+00   1.624606e+02    464s
  153758    2.1486453e+04   0.000000e+00   7.855432e+02    469s
  154395    2.1486453e+04   0.000000e+00   2.563860e+01    472s
  155032    2.1486453e+04   0.000000e+00   7.972991e+01    476s
  156306    2.1486453e+04   0.000000e+00   1.383022e+02    483s
  156943    2.1486453e+04   0.000000e+00   6.752654e+01    488s
  157580    2.1486453e+04   0.000000e+00   3.155134e+01    491s
  158854    2.1486453e+04   0.000000e+00   2.560286e+01    498s
  159491    2.1486453e+04   0.000000e+00   6.561000e+00    500s
  160271    2.1485628e+04   0.000000e+00   0.000000e+00    505s
Extra simplex iterations after uncrush: 104212

Solved in 160271 iterations and 505.24 seconds (636.54 work units)
Optimal objective  2.148562844e+04
